Ordonnancement/plne/source/petit_instance/4job/4job_14.dat
data;
param nombreJob := 4;
param nombreRessource := 3;
param duree := 1 1 2 6 3 8 4 7;
param capaciteRessource := 1 6 2 13 3 16;
param besoinRessource : 1 2 3 :=
                    1   1 3 1
                    2   1 8 1
                    3   3 1 9
                    4   1 6 9;
end;

