Ordonnancement/plne/source/glpk_resultat/4job/4job_14.sol
Problem:    glpsolRcpsp
Rows:       239
Columns:    89 (88 integer, 88 binary)
Non-zeros:  1529
Status:     INTEGER OPTIMAL
Objective:  obj = 15 (MINimum)

   No.   Row name        Activity     Lower bound   Upper bound
------ ------------    ------------- ------------- -------------
     1 periode[1]                  1             1             = 
     2 periode[2]                  6             6             = 
     3 periode[3]                  8             8             = 
     4 periode[4]                  7             7             = 
     5 complet[1,1]                1                           1 
     6 complet[1,2]                1                           1 
     7 complet[1,3]                1                           1 
     8 complet[1,4]                1                           1 
     9 complet[1,5]                1                           1 
    10 complet[1,6]                1                           1 
    11 complet[1,7]               -1                           1 
    12 complet[1,8]                1                           1 
    13 complet[1,9]                0                           1 
    14 complet[1,10]
                                   0                           1 
    15 complet[1,11]
                                   0                           1 
    16 complet[1,12]
                                   0                           1 
    17 complet[1,13]
                                   0                           1 
    18 complet[1,14]
                                   0                           1 
    19 complet[1,15]
                                   0                           1 
    20 complet[1,16]
                                   0                           1 
    21 complet[1,17]
                                   0                           1 
    22 complet[1,18]
                                   0                           1 
    23 complet[1,19]
                                   0                           1 
    24 complet[1,20]
                                   0                           1 
    25 complet[2,1]                4                           6 
    26 complet[2,2]                3                           6 
    27 complet[2,3]                2                           6 
    28 complet[2,4]                1                           6 
    29 complet[2,5]                0                           6 
    30 complet[2,6]                6                           6 
    31 complet[2,7]                0                           6 
    32 complet[2,8]                0                           6 
    33 complet[2,9]                0                           6 
    34 complet[2,10]
                                   0                           6 
    35 complet[2,11]
                                   0                           6 
    36 complet[2,12]
                                   0                           6 
    37 complet[2,13]
                                   0                           6 
    38 complet[2,14]
                                   0                           6 
    39 complet[2,15]
                                   0                           6 
    40 complet[2,16]
                                   0                           6 
    41 complet[2,17]
                                   0                           6 
    42 complet[2,18]
                                   0                           6 
    43 complet[2,19]
                                   0                           6 
    44 complet[2,20]
                                   0                           6 
    45 complet[3,1]                6                           8 
    46 complet[3,2]                5                           8 
    47 complet[3,3]                4                           8 
    48 complet[3,4]                3                           8 
    49 complet[3,5]                2                           8 
    50 complet[3,6]                1                           8 
    51 complet[3,7]                0                           8 
    52 complet[3,8]                8                           8 
    53 complet[3,9]                0                           8 
    54 complet[3,10]
                                   0                           8 
    55 complet[3,11]
                                   0                           8 
    56 complet[3,12]
                                   0                           8 
    57 complet[3,13]
                                   0                           8 
    58 complet[3,14]
                                   0                           8 
    59 complet[3,15]
                                   0                           8 
    60 complet[3,16]
                                   0                           8 
    61 complet[3,17]
                                   0                           8 
    62 complet[3,18]
                                   0                           8 
    63 complet[3,19]
                                   0                           8 
    64 complet[3,20]
                                   0                           8 
    65 complet[4,1]                7                           7 
    66 complet[4,2]                7                           7 
    67 complet[4,3]                7                           7 
    68 complet[4,4]                7                           7 
    69 complet[4,5]                7                           7 
    70 complet[4,6]                7                           7 
    71 complet[4,7]                7                           7 
    72 complet[4,8]               -1                           7 
    73 complet[4,9]                5                           7 
    74 complet[4,10]
                                   4                           7 
    75 complet[4,11]
                                   3                           7 
    76 complet[4,12]
                                   2                           7 
    77 complet[4,13]
                                   1                           7 
    78 complet[4,14]
                                   0                           7 
    79 complet[4,15]
                                   7                           7 
    80 complet[4,16]
                                   0                           7 
    81 complet[4,17]
                                   0                           7 
    82 complet[4,18]
                                   0                           7 
    83 complet[4,19]
                                   0                           7 
    84 complet[4,20]
                                   0                           7 
    85 cmax[1,1]                  15            -0               
    86 cmax[1,2]                  15            -0               
    87 cmax[1,3]                  15            -0               
    88 cmax[1,4]                  15            -0               
    89 cmax[1,5]                  15            -0               
    90 cmax[1,6]                  15            -0               
    91 cmax[1,7]                  15            -0               
    92 cmax[1,8]                   7            -0               
    93 cmax[1,9]                  15            -0               
    94 cmax[1,10]                 15            -0               
    95 cmax[1,11]                 15            -0               
    96 cmax[1,12]                 15            -0               
    97 cmax[1,13]                 15            -0               
    98 cmax[1,14]                 15            -0               
    99 cmax[1,15]                 15            -0               
   100 cmax[1,16]                 15            -0               
   101 cmax[1,17]                 15            -0               
   102 cmax[1,18]                 15            -0               
   103 cmax[1,19]                 15            -0               
   104 cmax[1,20]                 15            -0               
   105 cmax[1,21]                 15            -0               
   106 cmax[1,22]                 15            -0               
   107 cmax[2,1]                  14            -0               
   108 cmax[2,2]                  13            -0               
   109 cmax[2,3]                  12            -0               
   110 cmax[2,4]                  11            -0               
   111 cmax[2,5]                  10            -0               
   112 cmax[2,6]                   9            -0               
   113 cmax[2,7]                  15            -0               
   114 cmax[2,8]                  15            -0               
   115 cmax[2,9]                  15            -0               
   116 cmax[2,10]                 15            -0               
   117 cmax[2,11]                 15            -0               
   118 cmax[2,12]                 15            -0               
   119 cmax[2,13]                 15            -0               
   120 cmax[2,14]                 15            -0               
   121 cmax[2,15]                 15            -0               
   122 cmax[2,16]                 15            -0               
   123 cmax[2,17]                 15            -0               
   124 cmax[2,18]                 15            -0               
   125 cmax[2,19]                 15            -0               
   126 cmax[2,20]                 15            -0               
   127 cmax[2,21]                 15            -0               
   128 cmax[2,22]                 15            -0               
   129 cmax[3,1]                  14            -0               
   130 cmax[3,2]                  13            -0               
   131 cmax[3,3]                  12            -0               
   132 cmax[3,4]                  11            -0               
   133 cmax[3,5]                  10            -0               
   134 cmax[3,6]                   9            -0               
   135 cmax[3,7]                   8            -0               
   136 cmax[3,8]                   7            -0               
   137 cmax[3,9]                  15            -0               
   138 cmax[3,10]                 15            -0               
   139 cmax[3,11]                 15            -0               
   140 cmax[3,12]                 15            -0               
   141 cmax[3,13]                 15            -0               
   142 cmax[3,14]                 15            -0               
   143 cmax[3,15]                 15            -0               
   144 cmax[3,16]                 15            -0               
   145 cmax[3,17]                 15            -0               
   146 cmax[3,18]                 15            -0               
   147 cmax[3,19]                 15            -0               
   148 cmax[3,20]                 15            -0               
   149 cmax[3,21]                 15            -0               
   150 cmax[3,22]                 15            -0               
   151 cmax[4,1]                  15            -0               
   152 cmax[4,2]                  15            -0               
   153 cmax[4,3]                  15            -0               
   154 cmax[4,4]                  15            -0               
   155 cmax[4,5]                  15            -0               
   156 cmax[4,6]                  15            -0               
   157 cmax[4,7]                  15            -0               
   158 cmax[4,8]                  15            -0               
   159 cmax[4,9]                   6            -0               
   160 cmax[4,10]                  5            -0               
   161 cmax[4,11]                  4            -0               
   162 cmax[4,12]                  3            -0               
   163 cmax[4,13]                  2            -0               
   164 cmax[4,14]                  1            -0               
   165 cmax[4,15]                  0            -0               
   166 cmax[4,16]                 15            -0               
   167 cmax[4,17]                 15            -0               
   168 cmax[4,18]                 15            -0               
   169 cmax[4,19]                 15            -0               
   170 cmax[4,20]                 15            -0               
   171 cmax[4,21]                 15            -0               
   172 cmax[4,22]                 15            -0               
   173 ressource[1,1]
                                   4                           6 
   174 ressource[1,2]
                                   4                           6 
   175 ressource[1,3]
                                   4                           6 
   176 ressource[1,4]
                                   4                           6 
   177 ressource[1,5]
                                   4                           6 
   178 ressource[1,6]
                                   4                           6 
   179 ressource[1,7]
                                   3                           6 
   180 ressource[1,8]
                                   4                           6 
   181 ressource[1,9]
                                   1                           6 
   182 ressource[1,10]
                                   1                           6 
   183 ressource[1,11]
                                   1                           6 
   184 ressource[1,12]
                                   1                           6 
   185 ressource[1,13]
                                   1                           6 
   186 ressource[1,14]
                                   1                           6 
   187 ressource[1,15]
                                   1                           6 
   188 ressource[1,16]
                                   0                           6 
   189 ressource[1,17]
                                   0                           6 
   190 ressource[1,18]
                                   0                           6 
   191 ressource[1,19]
                                   0                           6 
   192 ressource[1,20]
                                   0                           6 
   193 ressource[1,21]
                                   0                           6 
   194 ressource[1,22]
                                   0                           6 
   195 ressource[2,1]
                                   9                          13 
   196 ressource[2,2]
                                   9                          13 
   197 ressource[2,3]
                                   9                          13 
   198 ressource[2,4]
                                   9                          13 
   199 ressource[2,5]
                                   9                          13 
   200 ressource[2,6]
                                   9                          13 
   201 ressource[2,7]
                                   1                          13 
   202 ressource[2,8]
                                   4                          13 
   203 ressource[2,9]
                                   6                          13 
   204 ressource[2,10]
                                   6                          13 
   205 ressource[2,11]
                                   6                          13 
   206 ressource[2,12]
                                   6                          13 
   207 ressource[2,13]
                                   6                          13 
   208 ressource[2,14]
                                   6                          13 
   209 ressource[2,15]
                                   6                          13 
   210 ressource[2,16]
                                   0                          13 
   211 ressource[2,17]
                                   0                          13 
   212 ressource[2,18]
                                   0                          13 
   213 ressource[2,19]
                                   0                          13 
   214 ressource[2,20]
                                   0                          13 
   215 ressource[2,21]
                                   0                          13 
   216 ressource[2,22]
                                   0                          13 
   217 ressource[3,1]
                                  10                          16 
   218 ressource[3,2]
                                  10                          16 
   219 ressource[3,3]
                                  10                          16 
   220 ressource[3,4]
                                  10                          16 
   221 ressource[3,5]
                                  10                          16 
   222 ressource[3,6]
                                  10                          16 
   223 ressource[3,7]
                                   9                          16 
   224 ressource[3,8]
                                  10                          16 
   225 ressource[3,9]
                                   9                          16 
   226 ressource[3,10]
                                   9                          16 
   227 ressource[3,11]
                                   9                          16 
   228 ressource[3,12]
                                   9                          16 
   229 ressource[3,13]
                                   9                          16 
   230 ressource[3,14]
                                   9                          16 
   231 ressource[3,15]
                                   9                          16 
   232 ressource[3,16]
                                   0                          16 
   233 ressource[3,17]
                                   0                          16 
   234 ressource[3,18]
                                   0                          16 
   235 ressource[3,19]
                                   0                          16 
   236 ressource[3,20]
                                   0                          16 
   237 ressource[3,21]
                                   0                          16 
   238 ressource[3,22]
                                   0                          16 
   239 obj                        15                             

   No. Column name       Activity     Lower bound   Upper bound
------ ------------    ------------- ------------- -------------
     1 x[1,1]       *              0             0             1 
     2 x[1,2]       *              0             0             1 
     3 x[1,3]       *              0             0             1 
     4 x[1,4]       *              0             0             1 
     5 x[1,5]       *              0             0             1 
     6 x[1,6]       *              0             0             1 
     7 x[1,7]       *              0             0             1 
     8 x[1,8]       *              1             0             1 
     9 x[1,9]       *              0             0             1 
    10 x[1,10]      *              0             0             1 
    11 x[1,11]      *              0             0             1 
    12 x[1,12]      *              0             0             1 
    13 x[1,13]      *              0             0             1 
    14 x[1,14]      *              0             0             1 
    15 x[1,15]      *              0             0             1 
    16 x[1,16]      *              0             0             1 
    17 x[1,17]      *              0             0             1 
    18 x[1,18]      *              0             0             1 
    19 x[1,19]      *              0             0             1 
    20 x[1,20]      *              0             0             1 
    21 x[1,21]      *              0             0             1 
    22 x[1,22]      *              0             0             1 
    23 x[2,1]       *              1             0             1 
    24 x[2,2]       *              1             0             1 
    25 x[2,3]       *              1             0             1 
    26 x[2,4]       *              1             0             1 
    27 x[2,5]       *              1             0             1 
    28 x[2,6]       *              1             0             1 
    29 x[2,7]       *              0             0             1 
    30 x[2,8]       *              0             0             1 
    31 x[2,9]       *              0             0             1 
    32 x[2,10]      *              0             0             1 
    33 x[2,11]      *              0             0             1 
    34 x[2,12]      *              0             0             1 
    35 x[2,13]      *              0             0             1 
    36 x[2,14]      *              0             0             1 
    37 x[2,15]      *              0             0             1 
    38 x[2,16]      *              0             0             1 
    39 x[2,17]      *              0             0             1 
    40 x[2,18]      *              0             0             1 
    41 x[2,19]      *              0             0             1 
    42 x[2,20]      *              0             0             1 
    43 x[2,21]      *              0             0             1 
    44 x[2,22]      *              0             0             1 
    45 x[3,1]       *              1             0             1 
    46 x[3,2]       *              1             0             1 
    47 x[3,3]       *              1             0             1 
    48 x[3,4]       *              1             0             1 
    49 x[3,5]       *              1             0             1 
    50 x[3,6]       *              1             0             1 
    51 x[3,7]       *              1             0             1 
    52 x[3,8]       *              1             0             1 
    53 x[3,9]       *              0             0             1 
    54 x[3,10]      *              0             0             1 
    55 x[3,11]      *              0             0             1 
    56 x[3,12]      *              0             0             1 
    57 x[3,13]      *              0             0             1 
    58 x[3,14]      *              0             0             1 
    59 x[3,15]      *              0             0             1 
    60 x[3,16]      *              0             0             1 
    61 x[3,17]      *              0             0             1 
    62 x[3,18]      *              0             0             1 
    63 x[3,19]      *              0             0             1 
    64 x[3,20]      *              0             0             1 
    65 x[3,21]      *              0             0             1 
    66 x[3,22]      *              0             0             1 
    67 x[4,1]       *              0             0             1 
    68 x[4,2]       *              0             0             1 
    69 x[4,3]       *              0             0             1 
    70 x[4,4]       *              0             0             1 
    71 x[4,5]       *              0             0             1 
    72 x[4,6]       *              0             0             1 
    73 x[4,7]       *              0             0             1 
    74 x[4,8]       *              0             0             1 
    75 x[4,9]       *              1             0             1 
    76 x[4,10]      *              1             0             1 
    77 x[4,11]      *              1             0             1 
    78 x[4,12]      *              1             0             1 
    79 x[4,13]      *              1             0             1 
    80 x[4,14]      *              1             0             1 
    81 x[4,15]      *              1             0             1 
    82 x[4,16]      *              0             0             1 
    83 x[4,17]      *              0             0             1 
    84 x[4,18]      *              0             0             1 
    85 x[4,19]      *              0             0             1 
    86 x[4,20]      *              0             0             1 
    87 x[4,21]      *              0             0             1 
    88 x[4,22]      *              0             0             1 
    89 z                          15                             

Integer feasibility conditions:

KKT.PE: max.abs.err = 0.00e+00 on row 0
        max.rel.err = 0.00e+00 on row 0
        High quality

KKT.PB: max.abs.err = 0.00e+00 on row 0
        max.rel.err = 0.00e+00 on row 0
        High quality

End of output
